p cnf 200 1110
-101 58 0
-101 19 0
-101 16 0
-101 49 0
-101 -22 0
-101 -67 0
-101 60 0
-101 -7 0
-101 9 0
-101 15 0
101 -58 -19 -16 -49 22 67 -60 7 -9 -15 0
-102 44 0
-102 -26 0
-102 6 0
-102 -23 0
-102 9 0
-102 63 0
-102 100 0
-102 25 0
-102 50 0
-102 36 0
102 -44 26 -6 23 -9 -63 -100 -25 -50 -36 0
-103 -97 0
-103 98 0
-103 82 0
-103 -49 0
-103 -51 0
-103 94 0
-103 -86 0
-103 -25 0
-103 -14 0
-103 68 0
103 97 -98 -82 49 51 -94 86 25 14 -68 0
-104 -88 0
-104 -1 0
-104 -95 0
-104 47 0
-104 93 0
-104 73 0
-104 -66 0
-104 85 0
-104 44 0
-104 16 0
104 88 1 95 -47 -93 -73 66 -85 -44 -16 0
-105 -60 0
-105 3 0
-105 -67 0
-105 -84 0
-105 85 0
-105 59 0
-105 -33 0
-105 -79 0
-105 83 0
-105 -65 0
105 60 -3 67 84 -85 -59 33 79 -83 65 0
-106 58 0
-106 39 0
-106 25 0
-106 -18 0
-106 59 0
-106 -74 0
-106 60 0
-106 -67 0
-106 -24 0
-106 38 0
106 -58 -39 -25 18 -59 74 -60 67 24 -38 0
-107 -29 0
-107 46 0
-107 81 0
-107 -33 0
-107 28 0
-107 19 0
-107 36 0
-107 -5 0
-107 34 0
-107 84 0
107 29 -46 -81 33 -28 -19 -36 5 -34 -84 0
-108 54 0
-108 45 0
-108 -63 0
-108 -73 0
-108 89 0
-108 78 0
-108 -8 0
-108 -53 0
-108 62 0
-108 -94 0
108 -54 -45 63 73 -89 -78 8 53 -62 94 0
-109 -30 0
-109 66 0
-109 -56 0
-109 -88 0
-109 -13 0
-109 -60 0
-109 51 0
-109 -22 0
-109 -21 0
-109 34 0
109 30 -66 56 88 13 60 -51 22 21 -34 0
-110 -5 0
-110 -89 0
-110 -12 0
-110 -94 0
-110 72 0
-110 -96 0
-110 53 0
-110 -77 0
-110 61 0
-110 -100 0
110 5 89 12 94 -72 96 -53 77 -61 100 0
101 102 103 104 105 106 107 108 109 110 0
-111 -57 0
-111 85 0
-111 -55 0
-111 -40 0
-111 -22 0
-111 -34 0
-111 -50 0
-111 -46 0
-111 70 0
-111 -28 0
111 57 -85 55 40 22 34 50 46 -70 28 0
-112 -79 0
-112 21 0
-112 43 0
-112 26 0
-112 31 0
-112 32 0
-112 41 0
-112 -60 0
-112 84 0
-112 88 0
112 79 -21 -43 -26 -31 -32 -41 60 -84 -88 0
-113 -82 0
-113 44 0
-113 76 0
-113 32 0
-113 -84 0
-113 -75 0
-113 48 0
-113 53 0
-113 -3 0
-113 -30 0
113 82 -44 -76 -32 84 75 -48 -53 3 30 0
-114 -77 0
-114 94 0
-114 -16 0
-114 -45 0
-114 17 0
-114 -24 0
-114 86 0
-114 31 0
-114 66 0
-114 30 0
114 77 -94 16 45 -17 24 -86 -31 -66 -30 0
-115 28 0
-115 87 0
-115 -66 0
-115 -53 0
-115 57 0
-115 75 0
-115 44 0
-115 -97 0
-115 86 0
-115 48 0
115 -28 -87 66 53 -57 -75 -44 97 -86 -48 0
-116 -89 0
-116 26 0
-116 -3 0
-116 84 0
-116 33 0
-116 88 0
-116 -45 0
-116 -78 0
-116 -49 0
-116 79 0
116 89 -26 3 -84 -33 -88 45 78 49 -79 0
-117 56 0
-117 -50 0
-117 27 0
-117 -46 0
-117 -90 0
-117 -70 0
-117 73 0
-117 -39 0
-117 -91 0
-117 69 0
117 -56 50 -27 46 90 70 -73 39 91 -69 0
-118 -52 0
-118 65 0
-118 87 0
-118 -2 0
-118 66 0
-118 -32 0
-118 22 0
-118 -25 0
-118 68 0
-118 93 0
118 52 -65 -87 2 -66 32 -22 25 -68 -93 0
-119 -34 0
-119 -85 0
-119 84 0
-119 63 0
-119 55 0
-119 97 0
-119 -4 0
-119 66 0
-119 42 0
-119 -67 0
119 34 85 -84 -63 -55 -97 4 -66 -42 67 0
-120 -68 0
-120 43 0
-120 -90 0
-120 -14 0
-120 99 0
-120 -49 0
-120 -1 0
-120 -47 0
-120 75 0
-120 -82 0
120 68 -43 90 14 -99 49 1 47 -75 82 0
111 112 113 114 115 116 117 118 119 120 0
-121 -38 0
-121 74 0
-121 60 0
-121 3 0
-121 43 0
-121 -69 0
-121 -33 0
-121 78 0
-121 -88 0
-121 85 0
121 38 -74 -60 -3 -43 69 33 -78 88 -85 0
-122 -90 0
-122 -97 0
-122 71 0
-122 -69 0
-122 61 0
-122 96 0
-122 -2 0
-122 38 0
-122 -21 0
-122 24 0
122 90 97 -71 69 -61 -96 2 -38 21 -24 0
-123 -68 0
-123 -24 0
-123 -20 0
-123 -100 0
-123 95 0
-123 -41 0
-123 34 0
-123 37 0
-123 31 0
-123 -38 0
123 68 24 20 100 -95 41 -34 -37 -31 38 0
-124 -11 0
-124 74 0
-124 25 0
-124 31 0
-124 -86 0
-124 24 0
-124 -81 0
-124 3 0
-124 22 0
-124 87 0
124 11 -74 -25 -31 86 -24 81 -3 -22 -87 0
-125 -75 0
-125 -29 0
-125 57 0
-125 -98 0
-125 25 0
-125 15 0
-125 99 0
-125 -86 0
-125 -3 0
-125 19 0
125 75 29 -57 98 -25 -15 -99 86 3 -19 0
-126 87 0
-126 63 0
-126 -65 0
-126 85 0
-126 -9 0
-126 -89 0
-126 81 0
-126 -73 0
-126 97 0
-126 20 0
126 -87 -63 65 -85 9 89 -81 73 -97 -20 0
-127 25 0
-127 -14 0
-127 -34 0
-127 -23 0
-127 -100 0
-127 97 0
-127 -99 0
-127 -57 0
-127 -42 0
-127 6 0
127 -25 14 34 23 100 -97 99 57 42 -6 0
-128 -81 0
-128 -47 0
-128 -51 0
-128 38 0
-128 -66 0
-128 54 0
-128 19 0
-128 -87 0
-128 -35 0
-128 -95 0
128 81 47 51 -38 66 -54 -19 87 35 95 0
-129 65 0
-129 -49 0
-129 -51 0
-129 -29 0
-129 -55 0
-129 -10 0
-129 77 0
-129 -76 0
-129 -82 0
-129 23 0
129 -65 49 51 29 55 10 -77 76 82 -23 0
-130 1 0
-130 77 0
-130 -48 0
-130 -36 0
-130 -19 0
-130 -32 0
-130 12 0
-130 83 0
-130 -58 0
-130 -80 0
130 -1 -77 48 36 19 32 -12 -83 58 80 0
121 122 123 124 125 126 127 128 129 130 0
-131 -34 0
-131 17 0
-131 -91 0
-131 -83 0
-131 94 0
-131 56 0
-131 -37 0
-131 97 0
-131 -75 0
-131 -77 0
131 34 -17 91 83 -94 -56 37 -97 75 77 0
-132 -61 0
-132 -4 0
-132 59 0
-132 -47 0
-132 -94 0
-132 98 0
-132 -42 0
-132 88 0
-132 48 0
-132 76 0
132 61 4 -59 47 94 -98 42 -88 -48 -76 0
-133 -74 0
-133 -17 0
-133 -1 0
-133 -37 0
-133 77 0
-133 -35 0
-133 -51 0
-133 23 0
-133 5 0
-133 -31 0
133 74 17 1 37 -77 35 51 -23 -5 31 0
-134 -88 0
-134 -47 0
-134 -95 0
-134 83 0
-134 8 0
-134 33 0
-134 43 0
-134 34 0
-134 -55 0
-134 13 0
134 88 47 95 -83 -8 -33 -43 -34 55 -13 0
-135 93 0
-135 -71 0
-135 20 0
-135 -95 0
-135 70 0
-135 -58 0
-135 66 0
-135 -91 0
-135 39 0
-135 61 0
135 -93 71 -20 95 -70 58 -66 91 -39 -61 0
-136 62 0
-136 41 0
-136 -16 0
-136 -35 0
-136 -50 0
-136 -42 0
-136 10 0
-136 -28 0
-136 -47 0
-136 97 0
136 -62 -41 16 35 50 42 -10 28 47 -97 0
-137 90 0
-137 -31 0
-137 59 0
-137 -54 0
-137 -47 0
-137 26 0
-137 100 0
-137 -86 0
-137 63 0
-137 29 0
137 -90 31 -59 54 47 -26 -100 86 -63 -29 0
-138 38 0
-138 92 0
-138 -30 0
-138 -90 0
-138 60 0
-138 -40 0
-138 17 0
-138 34 0
-138 12 0
-138 -52 0
138 -38 -92 30 90 -60 40 -17 -34 -12 52 0
-139 -32 0
-139 98 0
-139 62 0
-139 26 0
-139 -39 0
-139 51 0
-139 25 0
-139 15 0
-139 92 0
-139 94 0
139 32 -98 -62 -26 39 -51 -25 -15 -92 -94 0
-140 -37 0
-140 -30 0
-140 -27 0
-140 7 0
-140 96 0
-140 -4 0
-140 -20 0
-140 26 0
-140 33 0
-140 93 0
140 37 30 27 -7 -96 4 20 -26 -33 -93 0
131 132 133 134 135 136 137 138 139 140 0
-141 -84 0
-141 -5 0
-141 100 0
-141 70 0
-141 -36 0
-141 -86 0
-141 -63 0
-141 -53 0
-141 -60 0
-141 -43 0
141 84 5 -100 -70 36 86 63 53 60 43 0
-142 -76 0
-142 12 0
-142 -36 0
-142 37 0
-142 -52 0
-142 -89 0
-142 38 0
-142 -99 0
-142 -41 0
-142 -98 0
142 76 -12 36 -37 52 89 -38 99 41 98 0
-143 -18 0
-143 89 0
-143 -72 0
-143 -6 0
-143 60 0
-143 69 0
-143 24 0
-143 -82 0
-143 65 0
-143 -67 0
143 18 -89 72 6 -60 -69 -24 82 -65 67 0
-144 -12 0
-144 68 0
-144 46 0
-144 -62 0
-144 -8 0
-144 -63 0
-144 -30 0
-144 -36 0
-144 -100 0
-144 -29 0
144 12 -68 -46 62 8 63 30 36 100 29 0
-145 59 0
-145 -13 0
-145 83 0
-145 19 0
-145 41 0
-145 32 0
-145 77 0
-145 56 0
-145 82 0
-145 -65 0
145 -59 13 -83 -19 -41 -32 -77 -56 -82 65 0
-146 -12 0
-146 81 0
-146 -8 0
-146 85 0
-146 90 0
-146 -17 0
-146 -61 0
-146 28 0
-146 -21 0
-146 -14 0
146 12 -81 8 -85 -90 17 61 -28 21 14 0
-147 -22 0
-147 -21 0
-147 -46 0
-147 -7 0
-147 -91 0
-147 -64 0
-147 -90 0
-147 -51 0
-147 80 0
-147 10 0
147 22 21 46 7 91 64 90 51 -80 -10 0
-148 -95 0
-148 80 0
-148 6 0
-148 -69 0
-148 3 0
-148 -49 0
-148 -66 0
-148 -41 0
-148 -31 0
-148 1 0
148 95 -80 -6 69 -3 49 66 41 31 -1 0
-149 -13 0
-149 -63 0
-149 42 0
-149 7 0
-149 -46 0
-149 98 0
-149 15 0
-149 -88 0
-149 -11 0
-149 -80 0
149 13 63 -42 -7 46 -98 -15 88 11 80 0
-150 -41 0
-150 -38 0
-150 31 0
-150 -32 0
-150 -85 0
-150 24 0
-150 -92 0
-150 -35 0
-150 -26 0
-150 -51 0
150 41 38 -31 32 85 -24 92 35 26 51 0
141 142 143 144 145 146 147 148 149 150 0
-151 -85 0
-151 -97 0
-151 -18 0
-151 -54 0
-151 -4 0
-151 82 0
-151 -74 0
-151 5 0
-151 -25 0
-151 -2 0
151 85 97 18 54 4 -82 74 -5 25 2 0
-152 -59 0
-152 25 0
-152 -95 0
-152 70 0
-152 -7 0
-152 -11 0
-152 37 0
-152 49 0
-152 -91 0
-152 94 0
152 59 -25 95 -70 7 11 -37 -49 91 -94 0
-153 65 0
-153 -47 0
-153 -28 0
-153 19 0
-153 54 0
-153 -48 0
-153 -53 0
-153 -42 0
-153 -43 0
-153 34 0
153 -65 47 28 -19 -54 48 53 42 43 -34 0
-154 18 0
-154 -78 0
-154 100 0
-154 87 0
-154 -66 0
-154 -73 0
-154 -59 0
-154 -43 0
-154 -14 0
-154 77 0
154 -18 78 -100 -87 66 73 59 43 14 -77 0
-155 88 0
-155 38 0
-155 28 0
-155 100 0
-155 92 0
-155 72 0
-155 12 0
-155 -4 0
-155 83 0
-155 71 0
155 -88 -38 -28 -100 -92 -72 -12 4 -83 -71 0
-156 30 0
-156 87 0
-156 21 0
-156 78 0
-156 77 0
-156 43 0
-156 -80 0
-156 -57 0
-156 64 0
-156 98 0
156 -30 -87 -21 -78 -77 -43 80 57 -64 -98 0
-157 -27 0
-157 -38 0
-157 -45 0
-157 -91 0
-157 -20 0
-157 -57 0
-157 -40 0
-157 95 0
-157 79 0
-157 -44 0
157 27 38 45 91 20 57 40 -95 -79 44 0
-158 -100 0
-158 85 0
-158 -96 0
-158 -44 0
-158 -14 0
-158 -22 0
-158 -88 0
-158 86 0
-158 8 0
-158 -76 0
158 100 -85 96 44 14 22 88 -86 -8 76 0
-159 9 0
-159 86 0
-159 -47 0
-159 -34 0
-159 -89 0
-159 -70 0
-159 -16 0
-159 -74 0
-159 -78 0
-159 -95 0
159 -9 -86 47 34 89 70 16 74 78 95 0
-160 66 0
-160 14 0
-160 -24 0
-160 -11 0
-160 -98 0
-160 67 0
-160 40 0
-160 85 0
-160 21 0
-160 100 0
160 -66 -14 24 11 98 -67 -40 -85 -21 -100 0
151 152 153 154 155 156 157 158 159 160 0
-161 -27 0
-161 -47 0
-161 99 0
-161 6 0
-161 -44 0
-161 -98 0
-161 33 0
-161 18 0
-161 39 0
-161 -37 0
161 27 47 -99 -6 44 98 -33 -18 -39 37 0
-162 47 0
-162 -45 0
-162 -31 0
-162 -97 0
-162 -86 0
-162 -34 0
-162 53 0
-162 43 0
-162 28 0
-162 79 0
162 -47 45 31 97 86 34 -53 -43 -28 -79 0
-163 -75 0
-163 -4 0
-163 -29 0
-163 -49 0
-163 -95 0
-163 -65 0
-163 58 0
-163 -23 0
-163 39 0
-163 -71 0
163 75 4 29 49 95 65 -58 23 -39 71 0
-164 -16 0
-164 87 0
-164 40 0
-164 3 0
-164 -53 0
-164 35 0
-164 -62 0
-164 -46 0
-164 -31 0
-164 -44 0
164 16 -87 -40 -3 53 -35 62 46 31 44 0
-165 37 0
-165 -34 0
-165 91 0
-165 -86 0
-165 -75 0
-165 99 0
-165 -30 0
-165 66 0
-165 -18 0
-165 90 0
165 -37 34 -91 86 75 -99 30 -66 18 -90 0
-166 -75 0
-166 91 0
-166 -10 0
-166 -1 0
-166 -31 0
-166 29 0
-166 5 0
-166 -88 0
-166 74 0
-166 -24 0
166 75 -91 10 1 31 -29 -5 88 -74 24 0
-167 5 0
-167 17 0
-167 76 0
-167 60 0
-167 97 0
-167 -53 0
-167 -25 0
-167 -78 0
-167 47 0
-167 -52 0
167 -5 -17 -76 -60 -97 53 25 78 -47 52 0
-168 -4 0
-168 74 0
-168 -79 0
-168 92 0
-168 -64 0
-168 59 0
-168 54 0
-168 38 0
-168 -93 0
-168 98 0
168 4 -74 79 -92 64 -59 -54 -38 93 -98 0
-169 16 0
-169 51 0
-169 -88 0
-169 74 0
-169 38 0
-169 -55 0
-169 -70 0
-169 40 0
-169 7 0
-169 81 0
169 -16 -51 88 -74 -38 55 70 -40 -7 -81 0
-170 61 0
-170 -36 0
-170 43 0
-170 32 0
-170 26 0
-170 73 0
-170 99 0
-170 -76 0
-170 -63 0
-170 -69 0
170 -61 36 -43 -32 -26 -73 -99 76 63 69 0
161 162 163 164 165 166 167 168 169 170 0
-171 69 0
-171 -50 0
-171 -73 0
-171 -54 0
-171 -28 0
-171 -12 0
-171 -36 0
-171 52 0
-171 -65 0
-171 -27 0
171 -69 50 73 54 28 12 36 -52 65 27 0
-172 -93 0
-172 20 0
-172 97 0
-172 55 0
-172 63 0
-172 -69 0
-172 15 0
-172 -87 0
-172 -74 0
-172 -4 0
172 93 -20 -97 -55 -63 69 -15 87 74 4 0
-173 82 0
-173 22 0
-173 -89 0
-173 57 0
-173 -4 0
-173 46 0
-173 85 0
-173 23 0
-173 24 0
-173 -25 0
173 -82 -22 89 -57 4 -46 -85 -23 -24 25 0
-174 -35 0
-174 68 0
-174 21 0
-174 -79 0
-174 -25 0
-174 86 0
-174 -16 0
-174 -100 0
-174 20 0
-174 71 0
174 35 -68 -21 79 25 -86 16 100 -20 -71 0
-175 -97 0
-175 -8 0
-175 15 0
-175 53 0
-175 -26 0
-175 -25 0
-175 -42 0
-175 98 0
-175 46 0
-175 -34 0
175 97 8 -15 -53 26 25 42 -98 -46 34 0
-176 -51 0
-176 80 0
-176 47 0
-176 -67 0
-176 41 0
-176 -5 0
-176 65 0
-176 94 0
-176 -39 0
-176 40 0
176 51 -80 -47 67 -41 5 -65 -94 39 -40 0
-177 -72 0
-177 -83 0
-177 -93 0
-177 -2 0
-177 -32 0
-177 -16 0
-177 -19 0
-177 -50 0
-177 60 0
-177 -38 0
177 72 83 93 2 32 16 19 50 -60 38 0
-178 -87 0
-178 -61 0
-178 46 0
-178 38 0
-178 -22 0
-178 -54 0
-178 68 0
-178 84 0
-178 19 0
-178 25 0
178 87 61 -46 -38 22 54 -68 -84 -19 -25 0
-179 -86 0
-179 6 0
-179 -83 0
-179 4 0
-179 13 0
-179 25 0
-179 91 0
-179 45 0
-179 -97 0
-179 75 0
179 86 -6 83 -4 -13 -25 -91 -45 97 -75 0
-180 96 0
-180 -48 0
-180 44 0
-180 11 0
-180 -5 0
-180 95 0
-180 -100 0
-180 51 0
-180 -43 0
-180 29 0
180 -96 48 -44 -11 5 -95 100 -51 43 -29 0
171 172 173 174 175 176 177 178 179 180 0
-181 -6 0
-181 -57 0
-181 -82 0
-181 70 0
-181 -40 0
-181 -3 0
-181 -62 0
-181 31 0
-181 -92 0
-181 84 0
181 6 57 82 -70 40 3 62 -31 92 -84 0
-182 -21 0
-182 -59 0
-182 36 0
-182 71 0
-182 2 0
-182 -42 0
-182 -11 0
-182 90 0
-182 -61 0
-182 35 0
182 21 59 -36 -71 -2 42 11 -90 61 -35 0
-183 -21 0
-183 10 0
-183 -89 0
-183 55 0
-183 26 0
-183 -69 0
-183 95 0
-183 -33 0
-183 -99 0
-183 -58 0
183 21 -10 89 -55 -26 69 -95 33 99 58 0
-184 84 0
-184 55 0
-184 -49 0
-184 51 0
-184 -45 0
-184 47 0
-184 3 0
-184 -89 0
-184 -42 0
-184 35 0
184 -84 -55 49 -51 45 -47 -3 89 42 -35 0
-185 -55 0
-185 -50 0
-185 -86 0
-185 -78 0
-185 57 0
-185 74 0
-185 17 0
-185 -27 0
-185 -66 0
-185 47 0
185 55 50 86 78 -57 -74 -17 27 66 -47 0
-186 2 0
-186 -68 0
-186 86 0
-186 53 0
-186 -72 0
-186 80 0
-186 66 0
-186 49 0
-186 40 0
-186 28 0
186 -2 68 -86 -53 72 -80 -66 -49 -40 -28 0
-187 -86 0
-187 -33 0
-187 -57 0
-187 -51 0
-187 -88 0
-187 90 0
-187 -79 0
-187 12 0
-187 -98 0
-187 -56 0
187 86 33 57 51 88 -90 79 -12 98 56 0
-188 -88 0
-188 42 0
-188 95 0
-188 -10 0
-188 53 0
-188 35 0
-188 62 0
-188 43 0
-188 25 0
-188 -96 0
188 88 -42 -95 10 -53 -35 -62 -43 -25 96 0
-189 -85 0
-189 49 0
-189 92 0
-189 57 0
-189 -79 0
-189 -60 0
-189 -89 0
-189 65 0
-189 2 0
-189 43 0
189 85 -49 -92 -57 79 60 89 -65 -2 -43 0
-190 32 0
-190 -17 0
-190 97 0
-190 10 0
-190 -9 0
-190 77 0
-190 71 0
-190 -70 0
-190 -22 0
-190 -69 0
190 -32 17 -97 -10 9 -77 -71 70 22 69 0
181 182 183 184 185 186 187 188 189 190 0
-191 78 0
-191 -58 0
-191 97 0
-191 -28 0
-191 -50 0
-191 40 0
-191 -73 0
-191 21 0
-191 72 0
-191 66 0
191 -78 58 -97 28 50 -40 73 -21 -72 -66 0
-192 99 0
-192 51 0
-192 -6 0
-192 -45 0
-192 -29 0
-192 20 0
-192 34 0
-192 -81 0
-192 61 0
-192 -37 0
192 -99 -51 6 45 29 -20 -34 81 -61 37 0
-193 -72 0
-193 73 0
-193 -31 0
-193 78 0
-193 82 0
-193 -20 0
-193 -2 0
-193 75 0
-193 98 0
-193 86 0
193 72 -73 31 -78 -82 20 2 -75 -98 -86 0
-194 -18 0
-194 -7 0
-194 71 0
-194 -72 0
-194 -3 0
-194 12 0
-194 -36 0
-194 19 0
-194 -40 0
-194 88 0
194 18 7 -71 72 3 -12 36 -19 40 -88 0
-195 -71 0
-195 -85 0
-195 72 0
-195 89 0
-195 99 0
-195 -66 0
-195 -8 0
-195 22 0
-195 -37 0
-195 -40 0
195 71 85 -72 -89 -99 66 8 -22 37 40 0
-196 30 0
-196 59 0
-196 -58 0
-196 14 0
-196 35 0
-196 -4 0
-196 -63 0
-196 -72 0
-196 6 0
-196 -74 0
196 -30 -59 58 -14 -35 4 63 72 -6 74 0
-197 27 0
-197 41 0
-197 -58 0
-197 24 0
-197 33 0
-197 36 0
-197 -63 0
-197 -83 0
-197 -62 0
-197 71 0
197 -27 -41 58 -24 -33 -36 63 83 62 -71 0
-198 81 0
-198 -74 0
-198 98 0
-198 -38 0
-198 55 0
-198 2 0
-198 -84 0
-198 -32 0
-198 49 0
-198 -23 0
198 -81 74 -98 38 -55 -2 84 32 -49 23 0
-199 61 0
-199 100 0
-199 97 0
-199 16 0
-199 -41 0
-199 20 0
-199 9 0
-199 50 0
-199 -33 0
-199 82 0
199 -61 -100 -97 -16 41 -20 -9 -50 33 -82 0
-200 -87 0
-200 81 0
-200 -33 0
-200 -65 0
-200 -24 0
-200 -97 0
-200 -98 0
-200 64 0
-200 -69 0
-200 94 0
200 87 -81 33 65 24 97 98 -64 69 -94 0
191 192 193 194 195 196 197 198 199 200 0
